0 136
5 353
10 818
11 848
847 848
846 847
845 846
844 845
843 844
842 843
841 842
840 841
839 840
838 839
837 838
836 837
835 836
834 835
833 834
832 833
831 832
830 831
829 830
828 829
827 828
826 827
825 826
824 825
823 824
822 823
821 822
820 821
819 820
818 819
10 383
382 383
381 382
380 381
379 380
378 379
377 378
376 377
375 376
374 375
373 374
372 373
371 372
370 371
369 370
368 369
367 368
366 367
365 366
364 365
363 364
362 363
361 362
360 361
359 360
358 359
357 358
356 357
355 356
354 355
353 354
5 166
165 166
164 165
163 164
162 163
161 162
160 161
159 160
158 159
157 158
156 157
155 156
154 155
153 154
152 153
151 152
150 151
149 150
148 149
147 148
146 147
145 146
144 145
143 144
142 143
141 142
140 141
139 140
138 139
137 138
136 137
